NAME : amz0301.136771_117271.tour
COMMENT : Cost = 136771_117271
COMMENT : Found by LKH-AMZ [Keld Helsgaun] Sun May 11 14:29:00 2025
COMMENT : TW viol.: 0 #: 0
TYPE : TOUR
DIMENSION : 166
TOUR_SECTION
20
151
41
98
126
1
77
128
48
60
71
57
43
117
55
134
75
6
47
51
91
86
81
15
31
114
89
68
100
113
142
140
110
111
159
82
92
50
29
22
96
26
19
66
11
44
125
95
9
38
33
14
62
157
133
137
3
97
116
148
53
23
58
153
39
109
158
63
123
101
52
59
42
136
61
56
124
28
67
46
102
119
165
49
141
132
80
37
35
40
32
154
162
105
93
138
2
120
83
4
45
147
107
79
108
90
70
5
54
8
24
144
163
103
16
64
7
99
121
74
112
27
73
150
65
161
78
87
118
115
156
152
34
164
104
166
130
106
21
30
149
12
127
69
146
72
160
36
88
94
10
13
76
139
25
145
143
131
122
129
17
155
84
18
85
135
-1
EOF
